5
4
40
1 1.3 1.55 1.75 2.1
41 40 13 38 10 14 40 38 7 6 30 27 45 31 20 48 23 6 11 46 45 16 49 48 24 5 11 46 24 41 5 22 25 17 21 14 47 29 5 21 42 6 41 30 21 37 6 21 29 22 14 28 22 28 30 11 9 34 38 20 18 9 11 45 27 29 49 21 30 35 27 18 20 19 39 6 45 46 30 46 46 29 45 48 41 10 38 11 13 26 33 32 11 18 48 8 38 10 17 7 11 27 44 17 7 18 13 8 34 47 14 24 26 9 35 30 11 16 20 13 49 30 28 15 29 22 43 30 47 36 15 30 22 5 40 27 17 13 36 14 32 16 12 25 20 47 22 14 31 46 45 29 18 42 25 43 29 38 15 32 